int: n=19;
array[1..n,1..2] of string: Edge = [|"S","A"|"S","B"|"S","C"|"B","C"|"S","D"|"C","D"|"A","E"|"D","E"|"E","G1"|"B","G2"|"C","G2"|"A","H"|"E","H"|"G1","H"|"A","I"|"B","I"|"H","I"|"B","J"|"G2","J"|];
